(set-info :smt-lib-version 2.6)
(set-logic QF_FPLIA)
(set-info :source |Random FP created by PyMPF|)
(set-info :license |https://www.gnu.org/licenses/gpl-3.0.html|)
(set-info :category random)
(set-info :status unsat)
;; (fp.from.int RTZ rounded_int)
(declare-const x Int)
(assert (= x 213795030516196458178055751672336019623))
(declare-const y Float32)
(assert (= y ((_ to_fp 8 24) x)))
;; y should be Float32(0x7F20D76C [Rational(213795013650408721985148972658776342528), 213795013650408721985148972658776342528.000000])

(declare-const z Float32)
(assert (= z (fp #b0 #b11111110 #b01000001101011101101100)))
(assert (not (= y z)))
